g3 0 1 0	# problem wastepaper3
 52 30 1 0 29	# vars, constraints, objectives, ranges, eqns
 16 0	# nonlinear constraints, objectives
 0 0	# network constraints: nonlinear, linear
 45 0 0	# nonlinear vars in constraints, objectives, both
 0 0 0 1	# linear network variables; functions; arith, flags
 3 0 0 24 0	# discrete variables: binary, integer, nonlinear (b,c,o)
 176 1	# nonzeros in Jacobian, gradients
 3 3	# max name lengths: constraints, variables
 0 0 0 0 0	# common exprs: b,c,o,c1,o1
b
0 .1 .9
0 .1 .9
0 .1 .9
0 0 10
0 0 10
0 0 10
0 0 10
0 0 10
0 0 10
0 0 10
0 0 10
0 0 10
0 0 10
0 0 10
0 0 10
0 0 10
0 0 10
0 0 10
0 0 10
0 0 10
0 0 10
0 0 1
0 0 1
0 0 1
0 0 1
0 0 1
0 0 1
0 0 1
0 0 1
0 0 1
0 0 1
0 0 1
0 0 1
0 0 1
0 0 1
0 0 1
0 0 1
0 0 1
0 0 1
0 0 1
0 0 1
0 0 1
0 0 1
0 0 1
0 0 1
0 0 10
0 0 10
0 0 10
0 0 10
0 0 1
0 0 1
0 0 1
x3
0 .1
1 .1
2 .1
r
4 0
4 0
4 0
4 0
4 0
4 0
4 0
4 0
4 0
4 0
4 0
4 0
4 0
4 0
4 0
4 0
1 6.75e-2
4 0
4 0
4 0
4 0
4 0
4 0
4 1
4 1
4 1
4 1
4 1
4 1
4 1
C0
o2
o5
v0
n.29
v4
C1
o2
o5
v1
n.13
v7
C2
o2
o5
v2
n6e-2
v10
C3
o2
o5
v0
n.74
v13
C4
o2
o5
v1
n.79
v16
C5
o2
o5
v2
n.71
v19
C6
o54
6
o2
v21
v3
o2
v24
v5
o2
v27
v6
o2
v30
v8
o2
v33
v9
o2
v36
v11
C7
o54
6
o2
v22
v3
o2
v25
v5
o2
v28
v6
o2
v31
v8
o2
v34
v9
o2
v37
v11
C8
o54
6
o2
v23
v3
o2
v26
v5
o2
v29
v6
o2
v32
v8
o2
v35
v9
o2
v38
v11
C9
o54
6
o2
v21
v12
o2
v24
v14
o2
v27
v15
o2
v30
v17
o2
v33
v18
o2
v36
v20
C10
o54
6
o2
v22
v12
o2
v25
v14
o2
v28
v15
o2
v31
v17
o2
v34
v18
o2
v37
v20
C11
o54
6
o2
v23
v12
o2
v26
v14
o2
v29
v15
o2
v32
v17
o2
v35
v18
o2
v38
v20
C12
o54
3
o2
v39
v3
o2
v40
v6
o2
v41
v9
C13
o54
3
o2
v39
v12
o2
v40
v15
o2
v41
v18
C14
o54
3
o2
v42
v5
o2
v43
v8
o2
v44
v11
C15
o54
3
o2
v42
v14
o2
v43
v17
o2
v44
v20
C16
n0
C17
n0
C18
n0
C19
n0
C20
n0
C21
n0
C22
n0
C23
n0
C24
n0
C25
n0
C26
n0
C27
n0
C28
n0
C29
n0
O0 0
n0
k51
2
4
6
11
14
20
25
28
34
39
42
48
53
56
62
67
70
76
81
84
90
93
96
99
102
105
108
111
114
117
120
123
126
129
132
135
138
141
144
147
150
153
156
159
162
164
165
166
167
170
173
J0 3
0 0
4 0
5 -1
J1 3
1 0
7 0
8 -1
J2 3
2 0
10 0
11 -1
J3 3
0 0
13 0
14 -1
J4 3
1 0
16 0
17 -1
J5 3
2 0
19 0
20 -1
J6 14
3 0
4 -1
5 0
6 0
8 0
9 0
11 0
21 0
24 0
27 0
30 0
33 0
36 0
49 .675
J7 14
3 0
5 0
6 0
7 -1
8 0
9 0
11 0
22 0
25 0
28 0
31 0
34 0
37 0
50 .675
J8 14
3 0
5 0
6 0
8 0
9 0
10 -1
11 0
23 0
26 0
29 0
32 0
35 0
38 0
51 .675
J9 14
12 0
13 -1
14 0
15 0
17 0
18 0
20 0
21 0
24 0
27 0
30 0
33 0
36 0
49 .649
J10 14
12 0
14 0
15 0
16 -1
17 0
18 0
20 0
22 0
25 0
28 0
31 0
34 0
37 0
50 .649
J11 14
12 0
14 0
15 0
17 0
18 0
19 -1
20 0
23 0
26 0
29 0
32 0
35 0
38 0
51 .649
J12 7
3 0
6 0
9 0
39 0
40 0
41 0
45 -1
J13 7
12 0
15 0
18 0
39 0
40 0
41 0
47 -1
J14 7
5 0
8 0
11 0
42 0
43 0
44 0
46 -1
J15 7
14 0
17 0
20 0
42 0
43 0
44 0
48 -1
J16 1
45 1
J17 3
3 1
4 -1
5 1
J18 3
6 1
7 -1
8 1
J19 3
9 1
10 -1
11 1
J20 3
12 1
13 -1
14 1
J21 3
15 1
16 -1
17 1
J22 3
18 1
19 -1
20 1
J23 4
21 1
22 1
23 1
39 1
J24 4
27 1
28 1
29 1
40 1
J25 4
33 1
34 1
35 1
41 1
J26 4
24 1
25 1
26 1
42 1
J27 4
30 1
31 1
32 1
43 1
J28 4
36 1
37 1
38 1
44 1
J29 3
49 1
50 1
51 1
G0 1
48 1
